objective value:                                12855
t_x_6                                               1 	(obj:39)
t_x_12                                              1 	(obj:2)
t_x_15                                              1 	(obj:11)
t_x_18                                              1 	(obj:1)
t_x_19                                              1 	(obj:15)
t_x_20                                              1 	(obj:31)
t_x_22                                              1 	(obj:31)
t_x_24                                              1 	(obj:37)
t_x_28                                              1 	(obj:35)
t_x_31                                              1 	(obj:56)
t_x_33                                              1 	(obj:15)
t_x_37                                              1 	(obj:3)
t_x_40                                              1 	(obj:30)
t_x_42                                              1 	(obj:1)
t_x_43                                              1 	(obj:55)
t_x_44                                              1 	(obj:14)
t_x_45                                              1 	(obj:44)
t_x_47                                              1 	(obj:2)
t_x_48                                              1 	(obj:19)
t_x_49                                              1 	(obj:57)
t_x_53                                              1 	(obj:12)
t_x_55                                              1 	(obj:4)
t_x_57                                              1 	(obj:20)
t_x_58                                              1 	(obj:21)
t_x_59                                              1 	(obj:6)
t_x_60                                              1 	(obj:38)
t_x_61                                              1 	(obj:53)
t_x_63                                              1 	(obj:4)
t_x_66                                              1 	(obj:39)
t_x_67                                              1 	(obj:16)
t_x_68                                              1 	(obj:52)
t_x_69                                              1 	(obj:34)
t_x_71                                              1 	(obj:32)
t_x_72                                              1 	(obj:28)
t_x_73                                              1 	(obj:13)
t_x_75                                              1 	(obj:18)
t_x_78                                              1 	(obj:4)
t_x_79                                              1 	(obj:45)
t_x_80                                              1 	(obj:60)
t_x_81                                              1 	(obj:19)
t_x_82                                              1 	(obj:20)
t_x_83                                              1 	(obj:12)
t_x_86                                              1 	(obj:45)
t_x_88                                              1 	(obj:44)
t_x_90                                              1 	(obj:0)
t_x_92                                              1 	(obj:5)
t_x_93                                              1 	(obj:15)
t_x_95                                              1 	(obj:26)
t_x_97                                              1 	(obj:14)
t_x_98                                              1 	(obj:29)
t_x_100                                             1 	(obj:5)
t_x_102                                             1 	(obj:4)
t_x_105                                             1 	(obj:5)
t_x_107                                             1 	(obj:42)
t_x_109                                             1 	(obj:13)
t_x_112                                             1 	(obj:37)
t_x_113                                             1 	(obj:82)
t_x_114                                             1 	(obj:16)
t_x_115                                             1 	(obj:14)
t_x_118                                             1 	(obj:14)
t_x_119                                             1 	(obj:8)
t_x_121                                             1 	(obj:7)
t_x_124                                             1 	(obj:27)
t_x_127                                             1 	(obj:54)
t_x_129                                             1 	(obj:15)
t_x_130                                             1 	(obj:20)
t_x_133                                             1 	(obj:8)
t_x_141                                             1 	(obj:1)
t_x_147                                             1 	(obj:17)
t_x_157                                             1 	(obj:14)
t_x_159                                             1 	(obj:12)
t_x_160                                             1 	(obj:26)
t_x_164                                             1 	(obj:62)
t_x_166                                             1 	(obj:18)
t_x_174                                             1 	(obj:18)
t_x_175                                             1 	(obj:24)
t_x_182                                             1 	(obj:19)
t_x_189                                             1 	(obj:7)
t_x_190                                             1 	(obj:25)
t_x_192                                             1 	(obj:8)
t_x_195                                             1 	(obj:16)
t_x_197                                             1 	(obj:3)
t_x_198                                             1 	(obj:50)
t_x_204                                             1 	(obj:5)
t_x_205                                             1 	(obj:42)
t_x_208                                             1 	(obj:4)
t_x_210                                             1 	(obj:1)
t_x_212                                             1 	(obj:7)
t_x_214                                             1 	(obj:46)
t_x_216                                             1 	(obj:7)
t_x_219                                             1 	(obj:31)
t_x_221                                             1 	(obj:6)
t_x_223                                             1 	(obj:10)
t_x_227                                             1 	(obj:7)
t_x_232                                             1 	(obj:47)
t_x_234                                             1 	(obj:9)
t_x_235                                             1 	(obj:55)
t_x_238                                             1 	(obj:11)
t_x_241                                             1 	(obj:16)
t_x_250                                             1 	(obj:15)
t_x_252                                             1 	(obj:19)
t_x_253                                             1 	(obj:2)
t_x_256                                             1 	(obj:10)
t_x_269                                             1 	(obj:13)
t_x_271                                             1 	(obj:16)
t_x_274                                             1 	(obj:8)
t_x_275                                             1 	(obj:39)
t_x_276                                             1 	(obj:11)
t_x_277                                             1 	(obj:0)
t_x_286                                             1 	(obj:14)
t_x_289                                             1 	(obj:45)
t_x_290                                             1 	(obj:56)
t_x_291                                             1 	(obj:5)
t_x_292                                             1 	(obj:44)
t_x_294                                             1 	(obj:14)
t_x_298                                             1 	(obj:21)
t_x_299                                             1 	(obj:17)
t_x_301                                             1 	(obj:3)
t_x_302                                             1 	(obj:9)
t_x_307                                             1 	(obj:56)
t_x_315                                             1 	(obj:26)
t_x_318                                             1 	(obj:22)
t_x_319                                             1 	(obj:57)
t_x_320                                             1 	(obj:38)
t_x_322                                             1 	(obj:14)
t_x_329                                             1 	(obj:20)
t_x_338                                             1 	(obj:16)
t_x_339                                             1 	(obj:39)
t_x_344                                             1 	(obj:13)
t_x_347                                             1 	(obj:4)
t_x_348                                             1 	(obj:23)
t_x_349                                             1 	(obj:15)
t_x_353                                             1 	(obj:15)
t_x_356                                             1 	(obj:6)
t_x_358                                             1 	(obj:2)
t_x_363                                             1 	(obj:30)
t_x_370                                             1 	(obj:11)
t_x_371                                             1 	(obj:20)
t_x_373                                             1 	(obj:20)
t_x_374                                             1 	(obj:11)
t_x_376                                             1 	(obj:43)
t_x_378                                             1 	(obj:44)
t_x_388                                             1 	(obj:3)
t_x_392                                             1 	(obj:0)
t_x_394                                             1 	(obj:47)
t_x_401                                             1 	(obj:0)
t_x_403                                             1 	(obj:4)
t_x_408                                             1 	(obj:4)
t_x_410                                             1 	(obj:17)
t_x_417                                             1 	(obj:9)
t_x_432                                             1 	(obj:14)
t_x_434                                             1 	(obj:46)
t_x_437                                             1 	(obj:53)
t_x_443                                             1 	(obj:1)
t_x_448                                             1 	(obj:25)
t_x_450                                             1 	(obj:3)
t_x_452                                             1 	(obj:15)
t_x_453                                             1 	(obj:28)
t_x_457                                             1 	(obj:28)
t_x_462                                             1 	(obj:46)
t_x_463                                             1 	(obj:9)
t_x_464                                             1 	(obj:12)
t_x_466                                             1 	(obj:36)
t_x_469                                             1 	(obj:9)
t_x_471                                             1 	(obj:14)
t_x_478                                             1 	(obj:37)
t_x_479                                             1 	(obj:33)
t_x_490                                             1 	(obj:5)
t_x_491                                             1 	(obj:15)
t_x_493                                             1 	(obj:49)
t_x_497                                             1 	(obj:45)
t_x_499                                             1 	(obj:2)
t_x_500                                             1 	(obj:10)
t_x_503                                             1 	(obj:34)
t_x_505                                             1 	(obj:23)
t_x_509                                             1 	(obj:8)
t_x_515                                             1 	(obj:6)
t_x_516                                             1 	(obj:5)
t_x_527                                             1 	(obj:18)
t_x_531                                             1 	(obj:16)
t_x_533                                             1 	(obj:54)
t_x_534                                             1 	(obj:35)
t_x_536                                             1 	(obj:4)
t_x_537                                             1 	(obj:18)
t_x_549                                             1 	(obj:5)
t_x_552                                             1 	(obj:7)
t_x_553                                             1 	(obj:23)
t_x_559                                             1 	(obj:1)
t_x_561                                             1 	(obj:26)
t_x_566                                             1 	(obj:38)
t_x_567                                             1 	(obj:8)
t_x_569                                             1 	(obj:10)
t_x_575                                             1 	(obj:15)
t_x_577                                             1 	(obj:8)
t_x_584                                             1 	(obj:8)
t_x_586                                             1 	(obj:37)
t_x_597                                             1 	(obj:6)
t_x_598                                             1 	(obj:57)
t_x_601                                             1 	(obj:41)
t_x_613                                             1 	(obj:6)
t_x_616                                             1 	(obj:6)
t_x_619                                             1 	(obj:4)
t_x_621                                             1 	(obj:57)
t_x_630                                             1 	(obj:4)
t_x_632                                             1 	(obj:45)
t_x_634                                             1 	(obj:11)
t_x_635                                             1 	(obj:7)
t_x_640                                             1 	(obj:51)
t_x_641                                             1 	(obj:7)
t_x_646                                             1 	(obj:30)
t_x_647                                             1 	(obj:8)
t_x_649                                             1 	(obj:0)
t_x_651                                             1 	(obj:29)
t_x_655                                             1 	(obj:2)
t_x_656                                             1 	(obj:19)
t_x_657                                             1 	(obj:0)
t_x_660                                             1 	(obj:0)
t_x_661                                             1 	(obj:10)
t_x_679                                             1 	(obj:15)
t_x_682                                             1 	(obj:41)
t_x_684                                             1 	(obj:8)
t_x_688                                             1 	(obj:4)
t_x_690                                             1 	(obj:50)
t_x_697                                             1 	(obj:36)
t_x_699                                             1 	(obj:2)
t_x_706                                             1 	(obj:36)
t_x_712                                             1 	(obj:10)
t_x_714                                             1 	(obj:5)
t_x_716                                             1 	(obj:25)
t_x_718                                             1 	(obj:21)
t_x_720                                             1 	(obj:8)
t_x_721                                             1 	(obj:15)
t_x_724                                             1 	(obj:14)
t_x_730                                             1 	(obj:5)
t_x_733                                             1 	(obj:20)
t_x_735                                             1 	(obj:15)
t_x_740                                             1 	(obj:16)
t_x_742                                             1 	(obj:0)
t_x_747                                             1 	(obj:27)
t_x_750                                             1 	(obj:24)
t_x_753                                             1 	(obj:0)
t_x_756                                             1 	(obj:16)
t_x_761                                             1 	(obj:34)
t_x_769                                             1 	(obj:27)
t_x_776                                             1 	(obj:20)
t_x_779                                             1 	(obj:6)
t_x_780                                             1 	(obj:19)
t_x_781                                             1 	(obj:21)
t_x_782                                             1 	(obj:0)
t_x_783                                             1 	(obj:24)
t_x_785                                             1 	(obj:22)
t_x_789                                             1 	(obj:8)
t_x_790                                             1 	(obj:4)
t_x_791                                             1 	(obj:4)
t_x_792                                             1 	(obj:6)
t_x_797                                             1 	(obj:31)
t_x_798                                             1 	(obj:24)
t_x_812                                             1 	(obj:21)
t_x_814                                             1 	(obj:2)
t_x_815                                             1 	(obj:0)
t_x_816                                             1 	(obj:38)
t_x_817                                             1 	(obj:15)
t_x_819                                             1 	(obj:7)
t_x_820                                             1 	(obj:21)
t_x_824                                             1 	(obj:43)
t_x_826                                             1 	(obj:20)
t_x_827                                             1 	(obj:2)
t_x_828                                             1 	(obj:6)
t_x_829                                             1 	(obj:1)
t_x_831                                             1 	(obj:39)
t_x_835                                             1 	(obj:67)
t_x_841                                             1 	(obj:24)
t_x_847                                             1 	(obj:20)
t_x_849                                             1 	(obj:9)
t_x_852                                             1 	(obj:23)
t_x_853                                             1 	(obj:6)
t_x_856                                             1 	(obj:45)
t_x_859                                             1 	(obj:10)
t_x_860                                             1 	(obj:0)
t_x_863                                             1 	(obj:45)
t_x_864                                             1 	(obj:35)
t_x_867                                             1 	(obj:48)
t_x_873                                             1 	(obj:49)
t_x_876                                             1 	(obj:4)
t_x_878                                             1 	(obj:25)
t_x_881                                             1 	(obj:29)
t_x_884                                             1 	(obj:5)
t_x_892                                             1 	(obj:53)
t_x_900                                             1 	(obj:30)
t_x_906                                             1 	(obj:23)
t_x_908                                             1 	(obj:25)
t_x_910                                             1 	(obj:11)
t_x_912                                             1 	(obj:30)
t_x_916                                             1 	(obj:25)
t_x_919                                             1 	(obj:36)
t_x_923                                             1 	(obj:45)
t_x_925                                             1 	(obj:1)
t_x_926                                             1 	(obj:18)
t_x_929                                             1 	(obj:7)
t_x_932                                             1 	(obj:0)
t_x_936                                             1 	(obj:43)
t_x_938                                             1 	(obj:2)
t_x_939                                             1 	(obj:33)
t_x_941                                             1 	(obj:18)
t_x_942                                             1 	(obj:4)
t_x_953                                             1 	(obj:7)
t_x_957                                             1 	(obj:49)
t_x_958                                             1 	(obj:35)
t_x_959                                             1 	(obj:13)
t_x_962                                             1 	(obj:0)
t_x_967                                             1 	(obj:15)
t_x_970                                             1 	(obj:8)
t_x_972                                             1 	(obj:4)
t_x_976                                             1 	(obj:1)
t_x_977                                             1 	(obj:22)
t_x_984                                             1 	(obj:18)
t_x_987                                             1 	(obj:27)
t_x_988                                             1 	(obj:16)
t_x_989                                             1 	(obj:11)
t_x_990                                             1 	(obj:34)
t_x_991                                             1 	(obj:21)
t_x_998                                             1 	(obj:11)
t_x_1001                                            1 	(obj:16)
t_x_1005                                            1 	(obj:30)
t_x_1006                                            1 	(obj:2)
t_x_1008                                            1 	(obj:7)
t_x_1012                                            1 	(obj:16)
t_x_1013                                            1 	(obj:32)
t_x_1016                                            1 	(obj:8)
t_x_1017                                            1 	(obj:16)
t_x_1018                                            1 	(obj:1)
t_x_1021                                            1 	(obj:26)
t_x_1041                                            1 	(obj:3)
t_x_1046                                            1 	(obj:1)
t_x_1049                                            1 	(obj:26)
t_x_1050                                            1 	(obj:15)
t_x_1051                                            1 	(obj:11)
t_x_1055                                            1 	(obj:6)
t_x_1056                                            1 	(obj:12)
t_x_1058                                            1 	(obj:23)
t_x_1060                                            1 	(obj:3)
t_x_1063                                            1 	(obj:15)
t_x_1064                                            1 	(obj:20)
t_x_1065                                            1 	(obj:2)
t_x_1067                                            1 	(obj:3)
t_x_1073                                            1 	(obj:36)
t_x_1074                                            1 	(obj:2)
t_x_1082                                            1 	(obj:7)
t_x_1091                                            1 	(obj:17)
t_x_1094                                            1 	(obj:33)
t_x_1096                                            1 	(obj:3)
t_x_1097                                            1 	(obj:55)
t_x_1100                                            1 	(obj:1)
t_x_1106                                            1 	(obj:23)
t_x_1109                                            1 	(obj:12)
t_x_1110                                            1 	(obj:30)
t_x_1111                                            1 	(obj:51)
t_x_1113                                            1 	(obj:34)
t_x_1116                                            1 	(obj:13)
t_x_1123                                            1 	(obj:44)
t_x_1124                                            1 	(obj:0)
t_x_1128                                            1 	(obj:12)
t_x_1130                                            1 	(obj:12)
t_x_1132                                            1 	(obj:16)
t_x_1133                                            1 	(obj:21)
t_x_1134                                            1 	(obj:18)
t_x_1138                                            1 	(obj:6)
t_x_1139                                            1 	(obj:2)
t_x_1148                                            1 	(obj:13)
t_x_1149                                            1 	(obj:7)
t_x_1150                                            1 	(obj:20)
t_x_1151                                            1 	(obj:24)
t_x_1154                                            1 	(obj:25)
t_x_1157                                            1 	(obj:29)
t_x_1160                                            1 	(obj:37)
t_x_1164                                            1 	(obj:4)
t_x_1170                                            1 	(obj:12)
t_x_1171                                            1 	(obj:49)
t_x_1176                                            1 	(obj:0)
t_x_1179                                            1 	(obj:21)
t_x_1184                                            1 	(obj:16)
t_x_1189                                            1 	(obj:16)
t_x_1193                                            1 	(obj:14)
t_x_1202                                            1 	(obj:8)
t_x_1204                                            1 	(obj:9)
t_x_1206                                            1 	(obj:30)
t_x_1213                                            1 	(obj:20)
t_x_1215                                            1 	(obj:37)
t_x_1216                                            1 	(obj:19)
t_x_1218                                            1 	(obj:10)
t_x_1221                                            1 	(obj:18)
t_x_1222                                            1 	(obj:32)
t_x_1225                                            1 	(obj:2)
t_x_1229                                            1 	(obj:7)
t_x_1236                                            1 	(obj:14)
t_x_1239                                            1 	(obj:7)
t_x_1240                                            1 	(obj:10)
t_x_1242                                            1 	(obj:2)
t_x_1243                                            1 	(obj:29)
t_x_1245                                            1 	(obj:30)
t_x_1249                                            1 	(obj:8)
t_x_1252                                            1 	(obj:4)
t_x_1253                                            1 	(obj:3)
t_x_1255                                            1 	(obj:8)
t_x_1256                                            1 	(obj:33)
t_x_1258                                            1 	(obj:37)
t_x_1262                                            1 	(obj:4)
t_x_1264                                            1 	(obj:18)
t_x_1270                                            1 	(obj:20)
t_x_1271                                            1 	(obj:18)
t_x_1273                                            1 	(obj:9)
t_x_1277                                            1 	(obj:13)
t_x_1278                                            1 	(obj:18)
t_x_1279                                            1 	(obj:0)
t_x_1281                                            1 	(obj:9)
t_x_1288                                            1 	(obj:43)
t_x_1289                                            1 	(obj:11)
t_x_1290                                            1 	(obj:4)
t_x_1295                                            1 	(obj:1)
t_x_1296                                            1 	(obj:9)
t_x_1297                                            1 	(obj:36)
t_x_1304                                            1 	(obj:33)
t_x_1307                                            1 	(obj:2)
t_x_1313                                            1 	(obj:46)
t_x_1316                                            1 	(obj:29)
t_x_1321                                            1 	(obj:7)
t_x_1324                                            1 	(obj:33)
t_x_1334                                            1 	(obj:12)
t_x_1335                                            1 	(obj:4)
t_x_1336                                            1 	(obj:1)
t_x_1338                                            1 	(obj:25)
t_x_1342                                            1 	(obj:16)
t_x_1345                                            1 	(obj:30)
t_x_1347                                            1 	(obj:67)
t_x_1351                                            1 	(obj:22)
t_x_1353                                            1 	(obj:0)
t_x_1354                                            1 	(obj:27)
t_x_1356                                            1 	(obj:19)
t_x_1364                                            1 	(obj:9)
t_x_1366                                            1 	(obj:10)
t_x_1367                                            1 	(obj:0)
t_x_1370                                            1 	(obj:15)
t_x_1374                                            1 	(obj:4)
t_x_1377                                            1 	(obj:20)
t_x_1380                                            1 	(obj:27)
t_x_1381                                            1 	(obj:29)
t_x_1382                                            1 	(obj:20)
t_x_1383                                            1 	(obj:27)
t_x_1385                                            1 	(obj:10)
t_x_1386                                            1 	(obj:10)
t_x_1396                                            1 	(obj:55)
t_x_1398                                            1 	(obj:6)
t_x_1400                                            1 	(obj:17)
t_x_1406                                            1 	(obj:25)
t_x_1408                                            1 	(obj:9)
t_x_1412                                            1 	(obj:25)
t_x_1417                                            1 	(obj:21)
t_x_1418                                            1 	(obj:8)
t_x_1419                                            1 	(obj:0)
t_x_1425                                            1 	(obj:19)
t_x_1427                                            1 	(obj:10)
t_x_1430                                            1 	(obj:26)
t_x_1433                                            1 	(obj:59)
t_x_1441                                            1 	(obj:49)
t_x_1446                                            1 	(obj:7)
t_x_1449                                            1 	(obj:69)
t_x_1453                                            1 	(obj:5)
t_x_1456                                            1 	(obj:13)
t_x_1459                                            1 	(obj:37)
t_x_1461                                            1 	(obj:25)
t_x_1463                                            1 	(obj:28)
t_x_1464                                            1 	(obj:25)
t_x_1467                                            1 	(obj:3)
t_x_1469                                            1 	(obj:20)
t_x_1471                                            1 	(obj:18)
t_x_1472                                            1 	(obj:0)
t_x_1476                                            1 	(obj:35)
t_x_1479                                            1 	(obj:4)
t_x_1481                                            1 	(obj:17)
t_x_1482                                            1 	(obj:42)
t_x_1488                                            1 	(obj:9)
t_x_1489                                            1 	(obj:17)
t_x_1490                                            1 	(obj:27)
t_x_1491                                            1 	(obj:23)
t_x_1492                                            1 	(obj:7)
t_x_1493                                            1 	(obj:7)
t_x_1495                                            1 	(obj:23)
t_x_1498                                            1 	(obj:2)
t_x_1500                                            1 	(obj:25)
t_x_1504                                            1 	(obj:19)
t_x_1508                                            1 	(obj:9)
t_x_1510                                            1 	(obj:64)
t_x_1511                                            1 	(obj:35)
t_x_1515                                            1 	(obj:19)
t_x_1517                                            1 	(obj:36)
t_x_1521                                            1 	(obj:21)
t_x_1522                                            1 	(obj:13)
t_x_1523                                            1 	(obj:26)
t_x_1524                                            1 	(obj:31)
t_x_1525                                            1 	(obj:47)
t_x_1533                                            1 	(obj:74)
t_x_1541                                            1 	(obj:7)
t_x_1548                                            1 	(obj:23)
t_x_1552                                            1 	(obj:7)
t_x_1553                                            1 	(obj:63)
t_x_1554                                            1 	(obj:39)
t_x_1555                                            1 	(obj:26)
t_x_1562                                            1 	(obj:35)
t_x_1563                                            1 	(obj:22)
t_x_1565                                            1 	(obj:20)
t_x_1568                                            1 	(obj:31)
t_x_1570                                            1 	(obj:29)
t_x_1571                                            1 	(obj:61)
t_x_1573                                            1 	(obj:5)
t_x_1575                                            1 	(obj:21)
t_x_1576                                            1 	(obj:0)
t_x_1577                                            1 	(obj:20)
t_x_1579                                            1 	(obj:66)
t_x_1586                                            1 	(obj:53)
t_x_1588                                            1 	(obj:6)
t_x_1590                                            1 	(obj:52)
t_x_1592                                            1 	(obj:22)
t_x_1593                                            1 	(obj:39)
t_x_1595                                            1 	(obj:23)
t_x_1604                                            1 	(obj:0)
t_x_1606                                            1 	(obj:10)
t_x_1610                                            1 	(obj:36)
t_x_1612                                            1 	(obj:0)
t_x_1617                                            1 	(obj:7)
t_x_1627                                            1 	(obj:9)
t_x_1639                                            1 	(obj:11)
t_x_1650                                            1 	(obj:9)
t_x_1651                                            1 	(obj:48)
t_x_1655                                            1 	(obj:0)
t_x_1662                                            1 	(obj:52)
t_x_1664                                            1 	(obj:23)
t_x_1680                                            1 	(obj:9)
t_x_1681                                            1 	(obj:32)
t_x_1683                                            1 	(obj:27)
t_x_1686                                            1 	(obj:9)
t_x_1688                                            1 	(obj:35)
t_x_1690                                            1 	(obj:44)
t_x_1695                                            1 	(obj:17)
t_x_1696                                            1 	(obj:12)
t_x_1699                                            1 	(obj:12)
t_x_1704                                            1 	(obj:73)
t_x_1705                                            1 	(obj:5)
t_x_1707                                            1 	(obj:17)
t_x_1708                                            1 	(obj:25)
t_x_1709                                            1 	(obj:18)
t_x_1711                                            1 	(obj:25)
t_x_1717                                            1 	(obj:6)
t_x_1720                                            1 	(obj:29)
t_x_1729                                            1 	(obj:25)
t_x_1744                                            1 	(obj:19)
t_x_1746                                            1 	(obj:4)
t_x_1747                                            1 	(obj:19)
t_x_1748                                            1 	(obj:2)
t_x_1751                                            1 	(obj:32)
t_x_1759                                            1 	(obj:0)
t_x_1761                                            1 	(obj:22)
t_x_1764                                            1 	(obj:5)
t_x_1771                                            1 	(obj:39)
t_x_1773                                            1 	(obj:44)
t_x_1777                                            1 	(obj:15)
t_x_1783                                            1 	(obj:14)
t_x_1788                                            1 	(obj:22)
t_x_1791                                            1 	(obj:20)
t_x_1794                                            1 	(obj:4)
t_x_1801                                            1 	(obj:1)
t_x_1802                                            1 	(obj:25)
t_x_1803                                            1 	(obj:21)
t_x_1806                                            1 	(obj:33)
t_x_1815                                            1 	(obj:38)
t_x_1818                                            1 	(obj:58)
t_x_1826                                            1 	(obj:23)
t_x_1829                                            1 	(obj:59)
t_x_1831                                            1 	(obj:8)
t_x_1833                                            1 	(obj:35)
t_x_1836                                            1 	(obj:67)
t_x_1839                                            1 	(obj:16)
t_x_1841                                            1 	(obj:11)
t_x_1843                                            1 	(obj:6)
t_x_1850                                            1 	(obj:13)
t_x_1851                                            1 	(obj:0)
t_x_1857                                            1 	(obj:23)
t_x_1872                                            1 	(obj:14)
t_x_1873                                            1 	(obj:7)
t_x_1877                                            1 	(obj:20)
t_x_1882                                            1 	(obj:3)
t_x_1886                                            1 	(obj:20)
t_x_1891                                            1 	(obj:13)
t_x_1893                                            1 	(obj:4)
t_x_1895                                            1 	(obj:25)
t_x_1896                                            1 	(obj:14)
t_x_1904                                            1 	(obj:97)
t_x_1912                                            1 	(obj:11)
t_x_1914                                            1 	(obj:12)
t_x_1916                                            1 	(obj:22)
t_x_1917                                            1 	(obj:16)
t_x_1926                                            1 	(obj:22)
t_x_1928                                            1 	(obj:32)
t_x_1929                                            1 	(obj:12)
t_x_1931                                            1 	(obj:12)
t_x_1933                                            1 	(obj:34)
t_x_1934                                            1 	(obj:70)
t_x_1935                                            1 	(obj:7)
t_x_1936                                            1 	(obj:10)
t_x_1942                                            1 	(obj:32)
t_x_1949                                            1 	(obj:61)
t_x_1954                                            1 	(obj:47)
t_x_1955                                            1 	(obj:14)
t_x_1964                                            1 	(obj:19)
t_x_1968                                            1 	(obj:9)
t_x_1970                                            1 	(obj:76)
t_x_1973                                            1 	(obj:5)
t_x_1975                                            1 	(obj:39)
t_x_1983                                            1 	(obj:19)
t_x_1990                                            1 	(obj:5)
t_x_1992                                            1 	(obj:41)
t_x_1994                                            1 	(obj:63)
